1421930
0 23 54636
23 19 232009
19 18 59143
18 21 8375
21 25 11584
25 10 13666
10 15 17050
15 13 22658
13 4 14272
4 12 6994
12 24 1644
24 17 7368
17 8 9870
8 3 8395
3 28 53285
28 27 52270
27 1 6275
1 29 6204
29 5 7944
5 14 10550
14 20 19591
20 22 92634
22 2 112203
2 6 5029
6 26 7370
26 7 98591
7 11 61690
11 9 116497
9 16 52694
16 0 251439
